; benchmark generated from python API
(set-info :status unknown)
(declare-fun S_3 () Real)
(declare-fun L_2 () Real)
(declare-fun A_2 () Real)
(declare-fun C () Real)
(declare-fun S_1 () Real)
(declare-fun S_0 () Real)
(declare-fun S_4 () Real)
(declare-fun S_2 () Real)
(declare-fun A_0 () Real)
(declare-fun L_0 () Real)
(declare-fun A_3 () Real)
(declare-fun L0 () Real)
(declare-fun A_1 () Real)
(declare-fun L_1 () Real)
(declare-fun A_4 () Real)
(assert
 (let (($x37 (>= L0 0.0)))
 (let (($x782 (>= C 5.0)))
 (let (($x12434 (<= (+ (* 2.0 C) A_1 (* (- 1.0) L_0) (* (- 1.0) S_4)) 0.0)))
 (let (($x12074 (<= (+ (* 3.0 C) (* (- 1.0) S_4) S_0) 0.0)))
 (let (($x843 (<= (+ (* (- 1.0) L_2) A_3 (* (- 1.0) S_4)) 0.0)))
 (let (($x16828 (or $x843 (not (<= 0.0 (+ C A_2 (* (- 1.0) A_3)))) $x12074 $x12434)))
 (let (($x12576 (not (<= 0.0 (+ C (* (- 1.0) A_2) L_1 A_1 (* (- 1.0) L_0))))))
 (let (($x12148 (<= (+ (* 2.0 C) L_1 (* (- 1.0) A_2) S_0) 0.0)))
 (let (($x12126 (<= (+ C (* (- 1.0) L_1) A_2 (* (- 1.0) S_4)) 0.0)))
 (let (($x5932 (<= (+ (* (- 1.0) L_1) A_3 (* (- 1.0) S_4)) 0.0)))
 (let (($x12149 (not $x12148)))
 (let ((?x508 (* (- 1.0) A_1)))
 (let ((?x11549 (+ C L_1 ?x508 S_0)))
 (let (($x10536 (<= 0.0 ?x11549)))
 (let ((?x583 (* (- 1.0) L_0)))
 (let ((?x504 (* (- 1.0) A_2)))
 (let ((?x441 (+ C ?x504 L_2 A_1 ?x583)))
 (let (($x364 (<= 0.0 ?x441)))
 (let (($x16770 (or $x364 $x12434 (not (<= 0.0 (+ C L_0 ?x508 S_0))) (not (<= 0.0 (+ (* (- 1.0) C) ?x504 A_3))))))
 (let (($x6943 (<= (+ (* 2.0 L_1) ?x508 (* (- 1.0) A_4) A_3 ?x504 S_4 S_0) 0.0)))
 (let (($x54 (= L_1 L_0)))
 (let ((?x496 (* (- 1.0) A_4)))
 (let ((?x328 (* (- 1.0) C)))
 (let ((?x4279 (* 2.0 L_1)))
 (let (($x16742 (or $x54 (<= (+ ?x4279 ?x328 ?x508 ?x496 A_3 ?x504 S_4 S_1) 0.0))))
 (let (($x10338 (<= 0.0 (+ C A_2 (* (- 1.0) A_3)))))
 (let (($x64 (= L_2 L_1)))
 (let (($x16738 (or $x54 (<= (+ L_1 (* (- 2.0) C) ?x508 ?x496 A_3 S_4) 0.0))))
 (let (($x2376 (= L_2 L_0)))
 (let (($x2177 (not (= L_0 L_1))))
 (let (($x16866 (or $x2177 $x2376 (<= ?x441 (- 5.0)) (<= (+ (* 2.0 C) L_2 ?x504 S_0) (- 5.0)))))
 (let (($x16506 (or $x843 (<= (+ (* 2.0 C) (* (- 1.0) S_4) S_1) 0.0) (<= 0.0 (+ C ?x504 L_1 S_1)))))
 (let ((?x515 (* (- 1.0) S_4)))
 (let ((?x479 (* (- 1.0) L_2)))
 (let ((?x1576 (* 2.0 C)))
 (let (($x17028 (or $x54 $x843 (<= (+ ?x1576 L_1 ?x508 ?x479 A_2 ?x515 S_0) 0.0))))
 (let (($x1019 (not (<= 0.0 (+ (* (- 1.0) L_1) L_0)))))
 (let (($x36 (>= L_0 L0)))
 (let (($x111 (>= S_1 S_0)))
 (let (($x114 (>= S_2 S_1)))
 (let (($x120 (>= S_4 S_3)))
 (let (($x122 (>= A_1 A_0)))
 (let (($x123 (>= A_2 A_1)))
 (let (($x125 (>= A_4 A_3)))
 (and (<= (+ A_2 ?x479) S_3) $x125 $x123 $x122 $x120 $x114 $x111 $x36 (or $x54 $x1019) (or $x64 (not (<= 0.0 (+ ?x479 L_1)))) (or $x64 (<= (+ ?x504 L_2 S_2) (- 5.0))) (or $x54 $x64 (= (+ ?x328 A_2 ?x479 L_1 ?x508) 0.0)) (or $x54 (<= (+ (* (- 2.0) C) ?x508 L_1 S_3) (- 5.0))) (or $x54 (<= (+ ?x328 ?x508 L_1 S_2) (- 5.0))) (or $x64 (<= ?x441 0.0) $x1019) (or $x10536 (<= (+ C (* (- 1.0) S_2) S_0) 0.0)) (or $x54 (<= ?x11549 (- 5.0))) $x17028 (<= (+ ?x328 L_0 S_1 (* (- 1.0) A_0)) 0.0) (or $x54 (not (= L_1 L_2)) (<= (+ ?x328 A_2 ?x508) 0.0)) (or $x64 (<= (+ ?x328 L_2 ?x504 S_3) (- 5.0))) (<= (+ (* (- 2.0) C) S_2 (* (- 1.0) S_1)) 0.0) (or $x64 (<= (+ ?x328 ?x504 L_2 ?x496 A_3 S_4) 0.0)) (<= (+ (* (- 2.0) C) L_0 S_2 (* (- 1.0) A_0)) 0.0) (or $x54 (<= (+ ?x508 L_1 S_1) (- 5.0))) (or $x54 (<= (+ (* (- 3.0) C) ?x508 L_1 S_4) (- 5.0))) (<= (+ (* (- 2.0) C) L_1 ?x504 S_4) 0.0) (or $x64 (<= (+ C L_2 ?x504 S_1) (- 5.0))) (<= (+ (* (- 4.0) C) S_4 (* (- 1.0) S_1)) 0.0) (<= (+ (* (- 4.0) C) S_3 (* (- 1.0) S_0)) 0.0) (<= (+ (* (- 4.0) C) L_0 S_4 (* (- 1.0) A_0)) 0.0) (<= (+ (* (- 3.0) C) L_0 S_3 (* (- 1.0) A_0)) 0.0) (<= (+ (* (- 3.0) C) S_2 (* (- 1.0) S_0)) 0.0) (or $x843 (<= (+ C ?x515 S_2) 0.0)) (<= (+ (* (- 3.0) C) S_3 (* (- 1.0) S_1)) 0.0) $x16506 (or $x843 (not (<= 0.0 (+ C L_2 ?x504 S_1))) $x12126) (or $x54 $x5932 $x12126 $x12148) (<= (+ ?x508 L_0 S_1) 0.0) (or $x64 (<= (+ (* (- 2.0) C) L_2 ?x504 S_4) (- 5.0))) $x16866 (or (<= (+ A_1 ?x583 (* (- 1.0) S_2)) 0.0) (not $x10536)) (<= (+ L_2 ?x496 S_4) 0.0) $x16738 (<= (+ ?x328 ?x508 L_0 S_2) 0.0) (<= (+ (* (- 2.0) C) ?x508 L_0 S_3) 0.0) (or $x64 $x10338 $x10536 $x12074) $x16742 (or $x54 $x6943) $x16770 (or (not $x364) $x843 $x12074 $x12149) (or $x843 $x10536 $x12074 $x12149) (or $x5932 $x12126 $x12148 $x12576) $x16828 (<= (+ (* (- 3.0) C) ?x508 L_0 S_4) 0.0) $x782 $x37 (not (>= (+ L_2 (* (- 1.0) A_3) S_3) 0.0)) (<= (+ ?x328 L_2 (* (- 1.0) A_3) S_4) 0.0) (<= (+ L_0 S_0 (* (- 1.0) A_0)) 0.0) (<= (+ ?x504 L_2 S_2) 0.0) (<= (+ (* (- 2.0) C) S_3 (* (- 1.0) S_2)) 0.0) (<= (+ (* (- 3.0) C) S_4 (* (- 1.0) S_2)) 0.0) (<= (+ (* (- 5.0) C) S_4 (* (- 1.0) S_0)) 0.0) (<= (+ (* (- 2.0) C) (* (- 1.0) S_0) S_1) 0.0) (<= (+ ?x328 ?x504 L_2 S_3) 0.0)))))))))))))))))))))))))))))))))))))))))))))))
(check-sat)
